
Gurobi 7.5.1 (linux64) logging started Tue Feb 13 15:20:36 2018


Gurobi Optimizer version 7.5.1 build v7.5.1rc0 (linux64)
Copyright (c) 2017, Gurobi Optimization, Inc.

Error reading LP format file plne6.lp at line 4
Malformed term in expression
Neighboring tokens: " + <= 1 c2: x24 + x20 + x27 "


ERROR 10012: Unable to read file


Gurobi 7.5.1 (linux64) logging started Tue Feb 13 15:24:36 2018


Gurobi Optimizer version 7.5.1 build v7.5.1rc0 (linux64)
Copyright (c) 2017, Gurobi Optimization, Inc.

Read LP format model from file plne6.lp
Reading time = 0.02 seconds
obj: 10 rows, 33 columns, 80 nonzeros
Optimize a model with 10 rows, 33 columns and 80 nonzeros
Variable types: 0 continuous, 33 integer (33 binary)
Coefficient statistics:
  Matrix range     [1e+00, 1e+00]
  Objective range  [1e+00, 1e+00]
  Bounds range     [1e+00, 1e+00]
  RHS range        [1e+00, 1e+00]
Found heuristic solution: objective 3
Presolve removed 10 rows and 33 columns
Presolve time: 0.01s
Presolve: All rows and columns removed

Explored 0 nodes (0 simplex iterations) in 0.04 seconds
Thread count was 1 (of 8 available processors)

Solution count 1: 3 

Optimal solution found (tolerance 1.00e-04)
Best objective 3.000000000000e+00, best bound 3.000000000000e+00, gap 0.0000%

Wrote result file 'affectation.sol'

